8 18
13 5
8 9
11 20
8 9
12 16
7 14
13 20
12 11
10 15
15 5
7 5
11 7
15 10
11 18
9 3
8 19
14 9
6 11
15 17
8 12
12 5
6 13
8 7
15 15
14 11
7 6
14 12
7 20
11 8
5 12
6 18
15 3
14 18
15 17
9 11
9 3
9 13
7 20
5 19
9 11
10 19
8 15
9 10
8 4
5 14
9 9
10 5
5 13
8 10
7 11
8 4
7 18
9 9
9 14
14 8
15 5
8 4
13 3
13 14
12 15
12 7
12 20
7 11
6 12
12 19
10 16
13 18
15 15
14 3
9 4
9 6
8 15
14 5
10 6
15 3
13 8
5 12
5 8
6 13
12 4
10 17
9 8
7 11
5 13
10 12
5 8
13 16
9 10
14 13
6 14
10 6
8 17
14 17
13 9
12 17
6 17
12 4
15 8
14 13